param target := 128;
set E := 1 2 3 4 5 6 7 8 9 10 11 12 13 14 15 16 17 18 19 20 21 22 23 24 25 26 27 28 29 30 ;
param weight := 
  1  -15
  2  -28
  3  -21
  4  18
  5  -4
  6  27
  7  11
  8  -1
  9  -18
  10  -12
  11  7
  12  -8
  13  18
  14  -2
  15  -11
  16  -4
  17  13
  18  0
  19  -4
  20  -19
  21  13
  22  -5
  23  16
  24  -18
  25  3
  26  -11
  27  20
  28  -21
  29  -8
  30  -20
;
